7968
37, 39, 40, 38, 15, 43, 33, 10, 9, 8, 41, 19, 45, 3, 17, 7, 2, 42, 21, 31, 18, 22, 1, 32, 49, 36, 35, 34, 44, 46, 16, 50, 20, 23, 30, 29, 47, 26, 28, 27, 13, 14, 52, 11, 51, 12, 25, 4, 6, 5, 24, 48
